WARNING: for repeatability, setting FPU to use double precision
============================[ Problem Statistics ]=============================
|                                                                             |
|  Number of variables:            50                                         |
|  Number of clauses:             218                                         |
|  Parse time:                   0.00 s                                       |
|                                                                             |
============================[ Search Statistics ]==============================
| Conflicts |          ORIGINAL         |          LEARNT          | Progress |
|           |    Vars  Clauses Literals |    Limit  Clauses Lit/Cl |          |
===============================================================================
===============================================================================
restarts              : 1
conflicts             : 78             (100386 /sec)
decisions             : 83             (0.00 % random) (106821 /sec)
propagations          : 1299           (1671815 /sec)
conflict literals     : 291            (16.86 % deleted)
Memory used           : 20.00 MB
CPU time              : 0.000777 s

UNSATISFIABLE
